
Gurobi 7.0.2 (win64, Java) logging started 12/05/17 11:21:46

Warning: Gurobi version mismatch between Java 7.0.1 and C library 7.0.2
Warning: Gurobi version mismatch between Java 7.0.1 and Jni 7.0.2
Optimize a model with 60 rows, 7 columns and 114 nonzeros
Variable types: 0 continuous, 7 integer (7 binary)
Coefficient statistics:
  Matrix range     [1e+00, 1e+00]
  Objective range  [2e+00, 9e+00]
  Bounds range     [1e+00, 1e+00]
  RHS range        [1e+00, 1e+00]
Found heuristic solution: objective 2
Presolve removed 55 rows and 3 columns
Presolve time: 0.11s
Presolved: 5 rows, 4 columns, 10 nonzeros
Found heuristic solution: objective 26.0000000
Variable types: 0 continuous, 4 integer (4 binary)

Root relaxation: cutoff, 2 iterations, 0.11 seconds

    Nodes    |    Current Node    |     Objective Bounds      |     Work
 Expl Unexpl |  Obj  Depth IntInf | Incumbent    BestBd   Gap | It/Node Time

     0     0     cutoff    0        26.00000   28.99997  11.5%     -    0s

Explored 0 nodes (2 simplex iterations) in 0.40 seconds
Thread count was 2 (of 2 available processors)

Solution count 2: 26 11 
Pool objective bound 26

Optimal solution found (tolerance 1.00e-04)
Best objective 2.600000000000e+01, best bound 2.600000000000e+01, gap 0.0000%

Gurobi 7.0.2 (win64, Java) logging started 12/05/17 11:55:52

Warning: Gurobi version mismatch between Java 7.0.1 and C library 7.0.2
Warning: Gurobi version mismatch between Java 7.0.1 and Jni 7.0.2
Optimize a model with 60 rows, 7 columns and 114 nonzeros
Variable types: 0 continuous, 7 integer (7 binary)
Coefficient statistics:
  Matrix range     [1e+00, 1e+00]
  Objective range  [2e+00, 9e+00]
  Bounds range     [1e+00, 1e+00]
  RHS range        [1e+00, 1e+00]
Found heuristic solution: objective 2
Presolve removed 55 rows and 3 columns
Presolve time: 0.00s
Presolved: 5 rows, 4 columns, 10 nonzeros
Found heuristic solution: objective 26.0000000
Variable types: 0 continuous, 4 integer (4 binary)

Root relaxation: cutoff, 2 iterations, 0.00 seconds

    Nodes    |    Current Node    |     Objective Bounds      |     Work
 Expl Unexpl |  Obj  Depth IntInf | Incumbent    BestBd   Gap | It/Node Time

     0     0     cutoff    0        26.00000   28.99997  11.5%     -    0s

Explored 0 nodes (2 simplex iterations) in 0.00 seconds
Thread count was 2 (of 2 available processors)

Solution count 2: 26 11 
Pool objective bound 26

Optimal solution found (tolerance 1.00e-04)
Best objective 2.600000000000e+01, best bound 2.600000000000e+01, gap 0.0000%

Gurobi 7.0.2 (win64, Java) logging started 12/05/17 12:02:44

Warning: Gurobi version mismatch between Java 7.0.1 and C library 7.0.2
Warning: Gurobi version mismatch between Java 7.0.1 and Jni 7.0.2
Optimize a model with 60 rows, 7 columns and 114 nonzeros
Variable types: 0 continuous, 7 integer (7 binary)
Coefficient statistics:
  Matrix range     [1e+00, 1e+00]
  Objective range  [2e+00, 9e+00]
  Bounds range     [1e+00, 1e+00]
  RHS range        [1e+00, 1e+00]
Found heuristic solution: objective 2
Presolve removed 55 rows and 3 columns
Presolve time: 0.00s
Presolved: 5 rows, 4 columns, 10 nonzeros
Found heuristic solution: objective 26.0000000
Variable types: 0 continuous, 4 integer (4 binary)

Root relaxation: cutoff, 2 iterations, 0.00 seconds

    Nodes    |    Current Node    |     Objective Bounds      |     Work
 Expl Unexpl |  Obj  Depth IntInf | Incumbent    BestBd   Gap | It/Node Time

     0     0     cutoff    0        26.00000   28.99997  11.5%     -    0s

Explored 0 nodes (2 simplex iterations) in 0.00 seconds
Thread count was 2 (of 2 available processors)

Solution count 2: 26 11 
Pool objective bound 26

Optimal solution found (tolerance 1.00e-04)
Best objective 2.600000000000e+01, best bound 2.600000000000e+01, gap 0.0000%

Gurobi 7.0.2 (win64, Java) logging started 12/05/17 12:11:56

Warning: Gurobi version mismatch between Java 7.0.1 and C library 7.0.2
Warning: Gurobi version mismatch between Java 7.0.1 and Jni 7.0.2
Optimize a model with 60 rows, 7 columns and 114 nonzeros
Variable types: 0 continuous, 7 integer (7 binary)
Coefficient statistics:
  Matrix range     [1e+00, 1e+00]
  Objective range  [2e+00, 9e+00]
  Bounds range     [1e+00, 1e+00]
  RHS range        [1e+00, 1e+00]
Found heuristic solution: objective 2
Presolve removed 55 rows and 3 columns
Presolve time: 0.00s
Presolved: 5 rows, 4 columns, 10 nonzeros
Found heuristic solution: objective 26.0000000
Variable types: 0 continuous, 4 integer (4 binary)

Root relaxation: cutoff, 2 iterations, 0.00 seconds

    Nodes    |    Current Node    |     Objective Bounds      |     Work
 Expl Unexpl |  Obj  Depth IntInf | Incumbent    BestBd   Gap | It/Node Time

     0     0     cutoff    0        26.00000   28.99997  11.5%     -    0s

Explored 0 nodes (2 simplex iterations) in 0.00 seconds
Thread count was 2 (of 2 available processors)

Solution count 2: 26 11 
Pool objective bound 26

Optimal solution found (tolerance 1.00e-04)
Best objective 2.600000000000e+01, best bound 2.600000000000e+01, gap 0.0000%

Gurobi 7.0.2 (win64, Java) logging started 12/05/17 16:07:19

Warning: Gurobi version mismatch between Java 7.0.1 and C library 7.0.2
Warning: Gurobi version mismatch between Java 7.0.1 and Jni 7.0.2
Optimize a model with 43 rows, 5 columns and 73 nonzeros
Variable types: 0 continuous, 5 integer (5 binary)
Coefficient statistics:
  Matrix range     [1e+00, 1e+00]
  Objective range  [2e+00, 9e+00]
  Bounds range     [1e+00, 1e+00]
  RHS range        [1e+00, 1e+00]
Found heuristic solution: objective 2
Presolve removed 43 rows and 5 columns
Presolve time: 0.00s
Presolve: All rows and columns removed

Explored 0 nodes (0 simplex iterations) in 0.00 seconds
Thread count was 1 (of 2 available processors)

Solution count 1: 20 
Pool objective bound 20

Optimal solution found (tolerance 1.00e-04)
Best objective 2.000000000000e+01, best bound 2.000000000000e+01, gap 0.0000%

Gurobi 7.0.2 (win64, Java) logging started 12/05/17 16:07:42

Warning: Gurobi version mismatch between Java 7.0.1 and C library 7.0.2
Warning: Gurobi version mismatch between Java 7.0.1 and Jni 7.0.2
Optimize a model with 43 rows, 5 columns and 73 nonzeros
Variable types: 0 continuous, 5 integer (5 binary)
Coefficient statistics:
  Matrix range     [1e+00, 1e+00]
  Objective range  [2e+00, 9e+00]
  Bounds range     [1e+00, 1e+00]
  RHS range        [1e+00, 1e+00]
Found heuristic solution: objective 2
Presolve removed 43 rows and 5 columns
Presolve time: 0.00s
Presolve: All rows and columns removed

Explored 0 nodes (0 simplex iterations) in 0.00 seconds
Thread count was 1 (of 2 available processors)

Solution count 1: 20 
Pool objective bound 20

Optimal solution found (tolerance 1.00e-04)
Best objective 2.000000000000e+01, best bound 2.000000000000e+01, gap 0.0000%

Gurobi 7.0.2 (win64, Java) logging started 12/05/17 16:12:02

Warning: Gurobi version mismatch between Java 7.0.1 and C library 7.0.2
Warning: Gurobi version mismatch between Java 7.0.1 and Jni 7.0.2
Optimize a model with 43 rows, 5 columns and 73 nonzeros
Variable types: 0 continuous, 5 integer (5 binary)
Coefficient statistics:
  Matrix range     [1e+00, 1e+00]
  Objective range  [2e+00, 9e+00]
  Bounds range     [1e+00, 1e+00]
  RHS range        [1e+00, 1e+00]
Found heuristic solution: objective 2
Presolve removed 43 rows and 5 columns
Presolve time: 0.00s
Presolve: All rows and columns removed

Explored 0 nodes (0 simplex iterations) in 0.00 seconds
Thread count was 1 (of 2 available processors)

Solution count 1: 20 
Pool objective bound 20

Optimal solution found (tolerance 1.00e-04)
Best objective 2.000000000000e+01, best bound 2.000000000000e+01, gap 0.0000%

Gurobi 7.0.2 (win64, Java) logging started 12/05/17 16:14:30

Warning: Gurobi version mismatch between Java 7.0.1 and C library 7.0.2
Warning: Gurobi version mismatch between Java 7.0.1 and Jni 7.0.2
Optimize a model with 43 rows, 5 columns and 73 nonzeros
Variable types: 0 continuous, 5 integer (5 binary)
Coefficient statistics:
  Matrix range     [1e+00, 1e+00]
  Objective range  [2e+00, 9e+00]
  Bounds range     [1e+00, 1e+00]
  RHS range        [1e+00, 1e+00]
Found heuristic solution: objective 2
Presolve removed 43 rows and 5 columns
Presolve time: 0.00s
Presolve: All rows and columns removed

Explored 0 nodes (0 simplex iterations) in 0.00 seconds
Thread count was 1 (of 2 available processors)

Solution count 1: 20 
Pool objective bound 20

Optimal solution found (tolerance 1.00e-04)
Best objective 2.000000000000e+01, best bound 2.000000000000e+01, gap 0.0000%

Gurobi 7.0.2 (win64, Java) logging started 12/05/17 16:14:39

Warning: Gurobi version mismatch between Java 7.0.1 and C library 7.0.2
Warning: Gurobi version mismatch between Java 7.0.1 and Jni 7.0.2
Optimize a model with 43 rows, 5 columns and 73 nonzeros
Variable types: 0 continuous, 5 integer (5 binary)
Coefficient statistics:
  Matrix range     [1e+00, 1e+00]
  Objective range  [2e+00, 9e+00]
  Bounds range     [1e+00, 1e+00]
  RHS range        [1e+00, 1e+00]
Found heuristic solution: objective 2
Presolve removed 43 rows and 5 columns
Presolve time: 0.00s
Presolve: All rows and columns removed

Explored 0 nodes (0 simplex iterations) in 0.00 seconds
Thread count was 1 (of 2 available processors)

Solution count 1: 20 
Pool objective bound 20

Optimal solution found (tolerance 1.00e-04)
Best objective 2.000000000000e+01, best bound 2.000000000000e+01, gap 0.0000%

Gurobi 7.0.2 (win64, Java) logging started 12/05/17 16:15:57

Warning: Gurobi version mismatch between Java 7.0.1 and C library 7.0.2
Warning: Gurobi version mismatch between Java 7.0.1 and Jni 7.0.2
Optimize a model with 43 rows, 5 columns and 73 nonzeros
Variable types: 0 continuous, 5 integer (5 binary)
Coefficient statistics:
  Matrix range     [1e+00, 1e+00]
  Objective range  [2e+00, 9e+00]
  Bounds range     [1e+00, 1e+00]
  RHS range        [1e+00, 1e+00]
Found heuristic solution: objective 2
Presolve removed 43 rows and 5 columns
Presolve time: 0.00s
Presolve: All rows and columns removed

Explored 0 nodes (0 simplex iterations) in 0.00 seconds
Thread count was 1 (of 2 available processors)

Solution count 1: 20 
Pool objective bound 20

Optimal solution found (tolerance 1.00e-04)
Best objective 2.000000000000e+01, best bound 2.000000000000e+01, gap 0.0000%

Gurobi 7.0.2 (win64, Java) logging started 12/05/17 16:18:15

Warning: Gurobi version mismatch between Java 7.0.1 and C library 7.0.2
Warning: Gurobi version mismatch between Java 7.0.1 and Jni 7.0.2

Gurobi 7.0.2 (win64, Java) logging started 12/06/17 10:05:06

Warning: Gurobi version mismatch between Java 7.0.1 and C library 7.0.2
Warning: Gurobi version mismatch between Java 7.0.1 and Jni 7.0.2
Optimize a model with 43 rows, 5 columns and 73 nonzeros
Variable types: 0 continuous, 5 integer (5 binary)
Coefficient statistics:
  Matrix range     [1e+00, 1e+00]
  Objective range  [2e+00, 9e+00]
  Bounds range     [1e+00, 1e+00]
  RHS range        [1e+00, 1e+00]
Found heuristic solution: objective 2
Presolve removed 43 rows and 5 columns
Presolve time: 0.03s
Presolve: All rows and columns removed

Explored 0 nodes (0 simplex iterations) in 0.05 seconds
Thread count was 1 (of 2 available processors)

Solution count 1: 20 
Pool objective bound 20

Optimal solution found (tolerance 1.00e-04)
Best objective 2.000000000000e+01, best bound 2.000000000000e+01, gap 0.0000%

Gurobi 7.0.2 (win64, Java) logging started 12/06/17 10:12:42

Warning: Gurobi version mismatch between Java 7.0.1 and C library 7.0.2
Warning: Gurobi version mismatch between Java 7.0.1 and Jni 7.0.2
Optimize a model with 43 rows, 5 columns and 73 nonzeros
Variable types: 0 continuous, 5 integer (5 binary)
Coefficient statistics:
  Matrix range     [1e+00, 1e+00]
  Objective range  [2e+00, 9e+00]
  Bounds range     [1e+00, 1e+00]
  RHS range        [1e+00, 1e+00]
Found heuristic solution: objective 2
Presolve removed 43 rows and 5 columns
Presolve time: 0.00s
Presolve: All rows and columns removed

Explored 0 nodes (0 simplex iterations) in 0.00 seconds
Thread count was 1 (of 2 available processors)

Solution count 1: 20 
Pool objective bound 20

Optimal solution found (tolerance 1.00e-04)
Best objective 2.000000000000e+01, best bound 2.000000000000e+01, gap 0.0000%

Gurobi 7.0.2 (win64, Java) logging started 12/06/17 15:21:31

Warning: Gurobi version mismatch between Java 7.0.1 and C library 7.0.2
Warning: Gurobi version mismatch between Java 7.0.1 and Jni 7.0.2
Optimize a model with 43 rows, 5 columns and 69 nonzeros
Variable types: 0 continuous, 5 integer (5 binary)
Coefficient statistics:
  Matrix range     [1e+00, 1e+00]
  Objective range  [2e+00, 9e+00]
  Bounds range     [1e+00, 1e+00]
  RHS range        [1e+00, 1e+00]
Found heuristic solution: objective 2
Presolve removed 43 rows and 5 columns
Presolve time: 0.04s
Presolve: All rows and columns removed

Explored 0 nodes (0 simplex iterations) in 0.07 seconds
Thread count was 1 (of 2 available processors)

Solution count 1: 2 
Pool objective bound 2

Optimal solution found (tolerance 1.00e-04)
Best objective 2.000000000000e+00, best bound 2.000000000000e+00, gap 0.0000%

Gurobi 7.0.2 (win64, Java) logging started 12/06/17 15:24:35

Warning: Gurobi version mismatch between Java 7.0.1 and C library 7.0.2
Warning: Gurobi version mismatch between Java 7.0.1 and Jni 7.0.2
Optimize a model with 65 rows, 9 columns and 147 nonzeros
Variable types: 0 continuous, 9 integer (9 binary)
Coefficient statistics:
  Matrix range     [1e+00, 1e+00]
  Objective range  [2e+00, 9e+00]
  Bounds range     [1e+00, 1e+00]
  RHS range        [1e+00, 1e+00]
Found heuristic solution: objective 2
Presolve removed 65 rows and 9 columns
Presolve time: 0.00s
Presolve: All rows and columns removed

Explored 0 nodes (0 simplex iterations) in 0.00 seconds
Thread count was 1 (of 2 available processors)

Solution count 1: 2 
Pool objective bound 2

Optimal solution found (tolerance 1.00e-04)
Best objective 2.000000000000e+00, best bound 2.000000000000e+00, gap 0.0000%

Gurobi 7.0.2 (win64, Java) logging started 12/06/17 15:37:41

Warning: Gurobi version mismatch between Java 7.0.1 and C library 7.0.2
Warning: Gurobi version mismatch between Java 7.0.1 and Jni 7.0.2
Optimize a model with 89 rows, 15 columns and 291 nonzeros
Variable types: 0 continuous, 15 integer (15 binary)
Coefficient statistics:
  Matrix range     [1e+00, 1e+00]
  Objective range  [2e+00, 9e+00]
  Bounds range     [1e+00, 1e+00]
  RHS range        [1e+00, 1e+00]
Found heuristic solution: objective 2
Presolve removed 89 rows and 15 columns
Presolve time: 0.00s
Presolve: All rows and columns removed

Explored 0 nodes (0 simplex iterations) in 0.00 seconds
Thread count was 1 (of 2 available processors)

Solution count 1: 2 
Pool objective bound 2

Optimal solution found (tolerance 1.00e-04)
Best objective 2.000000000000e+00, best bound 2.000000000000e+00, gap 0.0000%

Gurobi 7.0.2 (win64, Java) logging started 12/06/17 15:39:34

Warning: Gurobi version mismatch between Java 7.0.1 and C library 7.0.2
Warning: Gurobi version mismatch between Java 7.0.1 and Jni 7.0.2
Optimize a model with 112 rows, 20 columns and 444 nonzeros
Variable types: 0 continuous, 20 integer (20 binary)
Coefficient statistics:
  Matrix range     [1e+00, 1e+00]
  Objective range  [2e+00, 9e+00]
  Bounds range     [1e+00, 1e+00]
  RHS range        [1e+00, 1e+00]
Found heuristic solution: objective 2
Presolve removed 112 rows and 20 columns
Presolve time: 0.00s
Presolve: All rows and columns removed

Explored 0 nodes (0 simplex iterations) in 0.00 seconds
Thread count was 1 (of 2 available processors)

Solution count 1: 2 
Pool objective bound 2

Optimal solution found (tolerance 1.00e-04)
Best objective 2.000000000000e+00, best bound 2.000000000000e+00, gap 0.0000%

Gurobi 7.0.2 (win64, Java) logging started 12/06/17 15:40:01

Warning: Gurobi version mismatch between Java 7.0.1 and C library 7.0.2
Warning: Gurobi version mismatch between Java 7.0.1 and Jni 7.0.2
Optimize a model with 135 rows, 25 columns and 625 nonzeros
Variable types: 0 continuous, 25 integer (25 binary)
Coefficient statistics:
  Matrix range     [1e+00, 1e+00]
  Objective range  [2e+00, 9e+00]
  Bounds range     [1e+00, 1e+00]
  RHS range        [1e+00, 1e+00]
Found heuristic solution: objective 2
Presolve removed 135 rows and 25 columns
Presolve time: 0.00s
Presolve: All rows and columns removed

Explored 0 nodes (0 simplex iterations) in 0.00 seconds
Thread count was 1 (of 2 available processors)

Solution count 1: 2 
Pool objective bound 2

Optimal solution found (tolerance 1.00e-04)
Best objective 2.000000000000e+00, best bound 2.000000000000e+00, gap 0.0000%

Gurobi 7.0.2 (win64, Java) logging started 12/06/17 15:40:27

Warning: Gurobi version mismatch between Java 7.0.1 and C library 7.0.2
Warning: Gurobi version mismatch between Java 7.0.1 and Jni 7.0.2
Optimize a model with 158 rows, 30 columns and 834 nonzeros
Variable types: 0 continuous, 30 integer (30 binary)
Coefficient statistics:
  Matrix range     [1e+00, 1e+00]
  Objective range  [2e+00, 9e+00]
  Bounds range     [1e+00, 1e+00]
  RHS range        [1e+00, 1e+00]
Found heuristic solution: objective 2
Presolve removed 158 rows and 30 columns
Presolve time: 0.00s
Presolve: All rows and columns removed

Explored 0 nodes (0 simplex iterations) in 0.00 seconds
Thread count was 1 (of 2 available processors)

Solution count 1: 2 
Pool objective bound 2

Optimal solution found (tolerance 1.00e-04)
Best objective 2.000000000000e+00, best bound 2.000000000000e+00, gap 0.0000%

Gurobi 7.0.2 (win64, Java) logging started 12/07/17 09:22:32

Warning: Gurobi version mismatch between Java 7.0.1 and C library 7.0.2
Warning: Gurobi version mismatch between Java 7.0.1 and Jni 7.0.2
Optimize a model with 43 rows, 5 columns and 73 nonzeros
Variable types: 0 continuous, 5 integer (5 binary)
Coefficient statistics:
  Matrix range     [1e+00, 1e+00]
  Objective range  [2e+00, 9e+00]
  Bounds range     [1e+00, 1e+00]
  RHS range        [1e+00, 1e+00]
Found heuristic solution: objective 2
Presolve removed 43 rows and 5 columns
Presolve time: 0.00s
Presolve: All rows and columns removed

Explored 0 nodes (0 simplex iterations) in 0.00 seconds
Thread count was 1 (of 2 available processors)

Solution count 1: 20 
Pool objective bound 20

Optimal solution found (tolerance 1.00e-04)
Best objective 2.000000000000e+01, best bound 2.000000000000e+01, gap 0.0000%

Gurobi 7.0.2 (win64, Java) logging started 12/07/17 09:29:48

Warning: Gurobi version mismatch between Java 7.0.1 and C library 7.0.2
Warning: Gurobi version mismatch between Java 7.0.1 and Jni 7.0.2
Optimize a model with 43 rows, 5 columns and 73 nonzeros
Variable types: 0 continuous, 5 integer (5 binary)
Coefficient statistics:
  Matrix range     [1e+00, 1e+00]
  Objective range  [2e+00, 9e+00]
  Bounds range     [1e+00, 1e+00]
  RHS range        [1e+00, 1e+00]
Found heuristic solution: objective 2
Presolve removed 43 rows and 5 columns
Presolve time: 0.00s
Presolve: All rows and columns removed

Explored 0 nodes (0 simplex iterations) in 0.00 seconds
Thread count was 1 (of 2 available processors)

Solution count 1: 20 
Pool objective bound 20

Optimal solution found (tolerance 1.00e-04)
Best objective 2.000000000000e+01, best bound 2.000000000000e+01, gap 0.0000%

Gurobi 7.0.2 (win64, Java) logging started 12/07/17 10:22:20

Warning: Gurobi version mismatch between Java 7.0.1 and C library 7.0.2
Warning: Gurobi version mismatch between Java 7.0.1 and Jni 7.0.2
Optimize a model with 43 rows, 5 columns and 69 nonzeros
Variable types: 0 continuous, 5 integer (5 binary)
Coefficient statistics:
  Matrix range     [1e+00, 1e+00]
  Objective range  [2e+00, 9e+00]
  Bounds range     [1e+00, 1e+00]
  RHS range        [1e+00, 1e+00]
Found heuristic solution: objective 2
Presolve removed 43 rows and 5 columns
Presolve time: 0.05s
Presolve: All rows and columns removed

Explored 0 nodes (0 simplex iterations) in 0.09 seconds
Thread count was 1 (of 2 available processors)

Solution count 1: 2 
Pool objective bound 2

Optimal solution found (tolerance 1.00e-04)
Best objective 2.000000000000e+00, best bound 2.000000000000e+00, gap 0.0000%

Gurobi 7.0.2 (win64, Java) logging started 12/07/17 10:38:59

Warning: Gurobi version mismatch between Java 7.0.1 and C library 7.0.2
Warning: Gurobi version mismatch between Java 7.0.1 and Jni 7.0.2
Optimize a model with 43 rows, 5 columns and 73 nonzeros
Variable types: 0 continuous, 5 integer (5 binary)
Coefficient statistics:
  Matrix range     [1e+00, 1e+00]
  Objective range  [2e+00, 9e+00]
  Bounds range     [1e+00, 1e+00]
  RHS range        [1e+00, 1e+00]
Found heuristic solution: objective 2
Presolve removed 43 rows and 5 columns
Presolve time: 0.05s
Presolve: All rows and columns removed

Explored 0 nodes (0 simplex iterations) in 0.05 seconds
Thread count was 1 (of 2 available processors)

Solution count 1: 20 
Pool objective bound 20

Optimal solution found (tolerance 1.00e-04)
Best objective 2.000000000000e+01, best bound 2.000000000000e+01, gap 0.0000%

Gurobi 7.0.2 (win64, Java) logging started 12/07/17 13:00:39

Warning: Gurobi version mismatch between Java 7.0.1 and C library 7.0.2
Warning: Gurobi version mismatch between Java 7.0.1 and Jni 7.0.2

Gurobi 7.0.2 (win64, Java) logging started 12/07/17 13:23:52

Warning: Gurobi version mismatch between Java 7.0.1 and C library 7.0.2
Warning: Gurobi version mismatch between Java 7.0.1 and Jni 7.0.2
Optimize a model with 43 rows, 5 columns and 69 nonzeros
Variable types: 0 continuous, 5 integer (5 binary)
Coefficient statistics:
  Matrix range     [1e+00, 1e+00]
  Objective range  [2e+00, 9e+00]
  Bounds range     [1e+00, 1e+00]
  RHS range        [1e+00, 1e+00]
Found heuristic solution: objective 2
Presolve removed 43 rows and 5 columns
Presolve time: 0.00s
Presolve: All rows and columns removed

Explored 0 nodes (0 simplex iterations) in 0.00 seconds
Thread count was 1 (of 2 available processors)

Solution count 1: 2 
Pool objective bound 2

Optimal solution found (tolerance 1.00e-04)
Best objective 2.000000000000e+00, best bound 2.000000000000e+00, gap 0.0000%
